# CIF file 
data_findsym-output
_audit_creation_method FINDSYM

_chemical_name_mineral 'B13C2'
_chemical_formula_sum 'B13 C2'

loop_
_publ_author_name
 'G. Will'
 'K. H. Kossobutzki'
_journal_name_full_name
;
 Journal of the Less-Common Metals
;
_journal_volume 44
_journal_year 1976
_journal_page_first 87
_journal_page_last 97
_publ_Section_title
;
 An X-ray structure analysis of boron carbide, B$_{13}$C$_{2}$
;

_aflow_title 'B$_{13}$C$_{2}$ ``B$_{4}$C'' ($D1_{g}$) Structure'
_aflow_proto 'A13B2_hR15_166_b2h_c'
_aflow_params 'a,c/a,x_{2},x_{3},z_{3},x_{4},z_{4}'
_aflow_params_values '6.617,1.82847211727,0.3823,0.8044,1.316,0.9936,1.6714'
_aflow_Strukturbericht '$D1_{g}$'
_aflow_Pearson 'hR15'

_symmetry_space_group_name_H-M "R -3 2/m (hexagonal axes)"
_symmetry_Int_Tables_number 166
 
_cell_length_a    6.61700
_cell_length_b    6.61700
_cell_length_c    12.09900
_cell_angle_alpha 90.00000
_cell_angle_beta  90.00000
_cell_angle_gamma 120.00000
 
loop_
_space_group_symop_id
_space_group_symop_operation_xyz
1 x,y,z
2 -y,x-y,z
3 -x+y,-x,z
4 y,x,-z
5 -x,-x+y,-z
6 x-y,-y,-z
7 -x,-y,-z
8 y,-x+y,-z
9 x-y,x,-z
10 -y,-x,z
11 x,x-y,z
12 -x+y,y,z
13 x+1/3,y+2/3,z+2/3
14 -y+1/3,x-y+2/3,z+2/3
15 -x+y+1/3,-x+2/3,z+2/3
16 y+1/3,x+2/3,-z+2/3
17 -x+1/3,-x+y+2/3,-z+2/3
18 x-y+1/3,-y+2/3,-z+2/3
19 -x+1/3,-y+2/3,-z+2/3
20 y+1/3,-x+y+2/3,-z+2/3
21 x-y+1/3,x+2/3,-z+2/3
22 -y+1/3,-x+2/3,z+2/3
23 x+1/3,x-y+2/3,z+2/3
24 -x+y+1/3,y+2/3,z+2/3
25 x+2/3,y+1/3,z+1/3
26 -y+2/3,x-y+1/3,z+1/3
27 -x+y+2/3,-x+1/3,z+1/3
28 y+2/3,x+1/3,-z+1/3
29 -x+2/3,-x+y+1/3,-z+1/3
30 x-y+2/3,-y+1/3,-z+1/3
31 -x+2/3,-y+1/3,-z+1/3
32 y+2/3,-x+y+1/3,-z+1/3
33 x-y+2/3,x+1/3,-z+1/3
34 -y+2/3,-x+1/3,z+1/3
35 x+2/3,x-y+1/3,z+1/3
36 -x+y+2/3,y+1/3,z+1/3
 
loop_
_atom_site_label
_atom_site_type_symbol
_atom_site_symmetry_multiplicity
_atom_site_Wyckoff_label
_atom_site_fract_x
_atom_site_fract_y
_atom_site_fract_z
_atom_site_occupancy
B1 B 3 b 0.00000 0.00000 0.50000 1.00000
C1 C 6 c 0.00000 0.00000 0.38230 1.00000
B2 B 18 h 0.16280 0.83720 0.64160 1.00000
B3 B 18 h 0.10740 0.89260 0.88620 1.00000