# CIF file 
data_findsym-output
_audit_creation_method FINDSYM

_chemical_name_mineral 'AuCl3Cs'
_chemical_formula_sum 'Au Cl3 Cs'

loop_
_publ_author_name
 'N. Elliott'
 'L. Pauling'
_journal_name_full_name
;
 Journal of the American Chemical Society
;
_journal_volume 60
_journal_year 1938
_journal_page_first 1846
_journal_page_last 1851
_publ_Section_title
;
 The Crystal Structure of Cesium Aurous Auric Chloride, Cs$_{2}$AuAuCl$_{6}$, and Cesium Argentous Auric Chloride, Cs$_{2}$AgAuCl$_{6}$
;

# Found in The American Mineralogist Crystal Structure Database, 2003

_aflow_title 'AuCsCl$_{3}$ ($K7_{6}$) Structure'
_aflow_proto 'AB3C_tI20_139_ab_eh_d'
_aflow_params 'a,c/a,z_{4},x_{5}'
_aflow_params_values '7.49,1.45126835781,0.288,0.228'
_aflow_Strukturbericht '$K7_{6}$'
_aflow_Pearson 'tI20'

_symmetry_space_group_name_H-M "I 4/m 2/m 2/m"
_symmetry_Int_Tables_number 139
 
_cell_length_a    7.49000
_cell_length_b    7.49000
_cell_length_c    10.87000
_cell_angle_alpha 90.00000
_cell_angle_beta  90.00000
_cell_angle_gamma 90.00000
 
loop_
_space_group_symop_id
_space_group_symop_operation_xyz
1 x,y,z
2 x,-y,-z
3 -x,y,-z
4 -x,-y,z
5 -y,-x,-z
6 -y,x,z
7 y,-x,z
8 y,x,-z
9 -x,-y,-z
10 -x,y,z
11 x,-y,z
12 x,y,-z
13 y,x,z
14 y,-x,-z
15 -y,x,-z
16 -y,-x,z
17 x+1/2,y+1/2,z+1/2
18 x+1/2,-y+1/2,-z+1/2
19 -x+1/2,y+1/2,-z+1/2
20 -x+1/2,-y+1/2,z+1/2
21 -y+1/2,-x+1/2,-z+1/2
22 -y+1/2,x+1/2,z+1/2
23 y+1/2,-x+1/2,z+1/2
24 y+1/2,x+1/2,-z+1/2
25 -x+1/2,-y+1/2,-z+1/2
26 -x+1/2,y+1/2,z+1/2
27 x+1/2,-y+1/2,z+1/2
28 x+1/2,y+1/2,-z+1/2
29 y+1/2,x+1/2,z+1/2
30 y+1/2,-x+1/2,-z+1/2
31 -y+1/2,x+1/2,-z+1/2
32 -y+1/2,-x+1/2,z+1/2
 
loop_
_atom_site_label
_atom_site_type_symbol
_atom_site_symmetry_multiplicity
_atom_site_Wyckoff_label
_atom_site_fract_x
_atom_site_fract_y
_atom_site_fract_z
_atom_site_occupancy
Au1 Au 2 a 0.00000 0.00000 0.00000 1.00000
Au2 Au 2 b 0.00000 0.00000 0.50000 1.00000
Cs1 Cs 4 d 0.00000 0.50000 0.25000 1.00000
Cl1 Cl 4 e 0.00000 0.00000 0.28800 1.00000
Cl2 Cl 8 h 0.22800 0.22800 0.00000 1.00000