# CIF file 
data_findsym-output
_audit_creation_method FINDSYM

_chemical_name_mineral 'Westerveldite'
_chemical_formula_sum 'As Fe'

loop_
_publ_author_name
 'K. Selte'
 'A. Kjekshus'
 'A. F. Andresen'
_journal_name_full_name
;
 Acta Chemica Scandinavica
;
_journal_volume 26
_journal_year 1972
_journal_page_first 3101
_journal_page_last 3113
_publ_Section_title
;
 Magnetic Structure and Properties of FeAs
;

# Found in Interplay between magnetism, structure, and strong electron-phonon coupling in binary FeAs under pressure, 2011

_aflow_title 'Westerveldite (FeAs, $B14$) Structure'
_aflow_proto 'AB_oP8_62_c_c'
_aflow_params 'a,b/a,c/a,x_{1},z_{1},x_{2},z_{2}'
_aflow_params_values '5.454,0.609644297763,1.10542720939,0.2005,0.5741,0.0058,0.1993'
_aflow_Strukturbericht '$B14$'
_aflow_Pearson 'oP8'

_symmetry_space_group_name_H-M "P 21/n 21/m 21/a"
_symmetry_Int_Tables_number 62
 
_cell_length_a    5.45400
_cell_length_b    3.32500
_cell_length_c    6.02900
_cell_angle_alpha 90.00000
_cell_angle_beta  90.00000
_cell_angle_gamma 90.00000
 
loop_
_space_group_symop_id
_space_group_symop_operation_xyz
1 x,y,z
2 x+1/2,-y+1/2,-z+1/2
3 -x,y+1/2,-z
4 -x+1/2,-y,z+1/2
5 -x,-y,-z
6 -x+1/2,y+1/2,z+1/2
7 x,-y+1/2,z
8 x+1/2,y,-z+1/2
 
loop_
_atom_site_label
_atom_site_type_symbol
_atom_site_symmetry_multiplicity
_atom_site_Wyckoff_label
_atom_site_fract_x
_atom_site_fract_y
_atom_site_fract_z
_atom_site_occupancy
As1 As   4 c 0.20050 0.25000 0.57410 1.00000
Fe1 Fe   4 c 0.00580 0.25000 0.19930 1.00000
