# CIF file 
data_findsym-output
_audit_creation_method FINDSYM

_chemical_name_mineral '``martensite type'''
_chemical_formula_sum 'C Fe'

loop_
_publ_author_name
 'E. A. Brandes'
 'G. B. Brook'
_journal_year 1992
_publ_Section_title
;
 Smithells Metals Reference Book
;

# Found in Strukturbericht 1913-1928, 1931

_aflow_title '``Martensite Type'' FeC$_{x}$ ($x \le 0.06$) ($L'2_{0}$) Structure'
_aflow_proto 'AB_tI4_139_b_a'
_aflow_params 'a,c/a'
_aflow_params_values '2.84,1.04577464789'
_aflow_Strukturbericht '$L'2_{0}$'
_aflow_Pearson 'tI4'

_symmetry_space_group_name_H-M "I 4/m 2/m 2/m"
_symmetry_Int_Tables_number 139
 
_cell_length_a    2.84000
_cell_length_b    2.84000
_cell_length_c    2.97000
_cell_angle_alpha 90.00000
_cell_angle_beta  90.00000
_cell_angle_gamma 90.00000
 
loop_
_space_group_symop_id
_space_group_symop_operation_xyz
1 x,y,z
2 x,-y,-z
3 -x,y,-z
4 -x,-y,z
5 -y,-x,-z
6 -y,x,z
7 y,-x,z
8 y,x,-z
9 -x,-y,-z
10 -x,y,z
11 x,-y,z
12 x,y,-z
13 y,x,z
14 y,-x,-z
15 -y,x,-z
16 -y,-x,z
17 x+1/2,y+1/2,z+1/2
18 x+1/2,-y+1/2,-z+1/2
19 -x+1/2,y+1/2,-z+1/2
20 -x+1/2,-y+1/2,z+1/2
21 -y+1/2,-x+1/2,-z+1/2
22 -y+1/2,x+1/2,z+1/2
23 y+1/2,-x+1/2,z+1/2
24 y+1/2,x+1/2,-z+1/2
25 -x+1/2,-y+1/2,-z+1/2
26 -x+1/2,y+1/2,z+1/2
27 x+1/2,-y+1/2,z+1/2
28 x+1/2,y+1/2,-z+1/2
29 y+1/2,x+1/2,z+1/2
30 y+1/2,-x+1/2,-z+1/2
31 -y+1/2,x+1/2,-z+1/2
32 -y+1/2,-x+1/2,z+1/2
 
loop_
_atom_site_label
_atom_site_type_symbol
_atom_site_symmetry_multiplicity
_atom_site_Wyckoff_label
_atom_site_fract_x
_atom_site_fract_y
_atom_site_fract_z
_atom_site_occupancy
Fe1 Fe 2 a 0.00000 0.00000 0.00000 1.00000
C1 C 2 b 0.00000 0.00000 0.50000 0.06000
